NAME : cvrp-A-G-100-6.1540.tour
COMMENT : Length = 1540
COMMENT : Found by LKH [Keld Helsgaun] Thu May 17 22:42:30 2018
TYPE : TOUR
DIMENSION : 31
TOUR_SECTION
1
23
25
20
15
8
3
24
14
10
9
26
29
31
18
28
19
6
12
13
17
30
5
7
11
21
27
22
2
16
4
-1
EOF
